Optimal - objective value 5104.00000000
      1 y_0_8                     1                     147
      3 y_0_14                    1                     489
      4 y_1_5                     1                     162
      7 y_1_13                    1                     534
      8 y_2_3                     1                     312
     12 y_3_6                     1                     971
     16 y_3_14                    1                     274
     20 y_4_11                    1                     679
     21 y_4_12                    1                     524
     24 y_5_9                     1                     347
     25 y_5_14                    1                     378
     40 y_12_14                   1                     287
     41 f_0_8_0_0                 1                       0
     53 f_0_0_14_1                1                       0
    110 f_0_14_3_2                1                       0
    160 f_1_11_4_0                1                       0
    177 f_1_4_12_1                1                       0
    262 f_1_12_14_2               1                       0
    267 f_1_14_0_3                1                       0
    268 f_2_2_3_0                 2                     -31
    282 f_2_3_14_1                2                       0
    362 f_3_14_0_0                2                       0
    370 f_3_0_8_1                 2                       0
    490 f_4_4_12_0                3                       0
    537 f_4_12_14_1               3                       0
    579 f_4_14_5_2                3                       0
    614 f_5_13_1_0                4                       0
    620 f_5_1_5_1                 4                       0
    689 f_5_5_9_2                 4                       0
    725 f_6_0_14_0                1                       0
    736 f_6_14_3_1                1                       0
    770 f_6_3_6_2                 1                       0
    833 f_7_12_14_0               2                       0
    846 f_7_14_3_1                2                       0
    889 f_7_3_2_2                 2                       0
